c numero: 24
c nombre: n-30-d-0.5
c densidad: 0.5
p edges 30 237
e 1 2
e 1 5
e 1 6
e 1 8
e 1 9
e 1 12
e 1 13
e 1 15
e 1 16
e 1 18
e 1 21
e 1 23
e 1 24
e 1 25
e 1 26
e 1 28
e 1 29
e 2 3
e 2 4
e 2 6
e 2 8
e 2 9
e 2 11
e 2 12
e 2 13
e 2 14
e 2 16
e 2 20
e 2 23
e 2 24
e 2 25
e 2 26
e 2 29
e 2 30
e 3 5
e 3 7
e 3 8
e 3 10
e 3 11
e 3 14
e 3 15
e 3 18
e 3 19
e 3 20
e 3 22
e 3 24
e 3 25
e 3 27
e 3 28
e 3 30
e 4 6
e 4 8
e 4 9
e 4 12
e 4 13
e 4 17
e 4 18
e 4 19
e 4 21
e 4 24
e 4 25
e 5 6
e 5 8
e 5 9
e 5 11
e 5 12
e 5 14
e 5 16
e 5 17
e 5 18
e 5 22
e 5 23
e 5 24
e 5 25
e 5 27
e 5 28
e 5 29
e 6 7
e 6 9
e 6 10
e 6 11
e 6 12
e 6 14
e 6 15
e 6 17
e 6 19
e 6 23
e 6 25
e 6 28
e 6 29
e 7 8
e 7 10
e 7 12
e 7 14
e 7 15
e 7 16
e 7 20
e 7 21
e 7 24
e 7 25
e 7 26
e 7 27
e 7 29
e 7 30
e 8 9
e 8 10
e 8 11
e 8 14
e 8 15
e 8 16
e 8 18
e 8 20
e 8 22
e 8 28
e 9 10
e 9 11
e 9 12
e 9 15
e 9 16
e 9 19
e 9 21
e 9 22
e 9 24
e 9 27
e 9 28
e 9 30
e 10 13
e 10 17
e 10 18
e 10 20
e 10 23
e 10 24
e 10 25
e 10 28
e 10 29
e 10 30
e 11 13
e 11 14
e 11 17
e 11 20
e 11 21
e 11 22
e 11 23
e 11 24
e 11 25
e 11 28
e 11 29
e 12 14
e 12 15
e 12 16
e 12 20
e 12 21
e 12 24
e 12 28
e 12 29
e 12 30
e 13 15
e 13 17
e 13 18
e 13 20
e 13 21
e 13 23
e 13 24
e 13 28
e 13 29
e 13 30
e 14 17
e 14 18
e 14 19
e 14 20
e 14 22
e 14 25
e 14 26
e 14 27
e 14 28
e 14 29
e 14 30
e 15 16
e 15 17
e 15 18
e 15 22
e 15 25
e 15 30
e 16 19
e 16 21
e 16 22
e 16 25
e 16 26
e 16 29
e 16 30
e 17 19
e 17 20
e 17 21
e 17 25
e 17 26
e 17 28
e 17 30
e 18 19
e 18 20
e 18 21
e 18 22
e 18 29
e 18 30
e 19 20
e 19 21
e 19 22
e 19 25
e 19 27
e 20 23
e 20 24
e 20 25
e 20 26
e 20 28
e 20 29
e 20 30
e 21 22
e 21 25
e 21 26
e 21 27
e 21 28
e 21 29
e 22 24
e 22 25
e 22 27
e 22 29
e 23 24
e 23 25
e 23 29
e 23 30
e 24 26
e 24 29
e 24 30
e 26 27
e 26 28
e 26 30
e 28 30
e 29 30
